p edge 50 368
e 1 2
e 1 3
e 1 4
e 1 7
e 1 14
e 1 15
e 1 16
e 1 18
e 1 36
e 1 40
e 1 41
e 1 43
e 2 3
e 2 5
e 2 15
e 2 21
e 2 22
e 2 23
e 2 24
e 2 27
e 2 33
e 2 34
e 2 38
e 2 39
e 2 40
e 2 41
e 2 45
e 2 46
e 2 48
e 3 6
e 3 9
e 3 12
e 3 13
e 3 17
e 3 20
e 3 22
e 3 31
e 3 32
e 3 36
e 3 37
e 3 38
e 3 39
e 3 40
e 3 41
e 3 48
e 4 5
e 4 6
e 4 11
e 4 13
e 4 15
e 4 18
e 4 22
e 4 30
e 4 46
e 4 50
e 5 8
e 5 15
e 5 17
e 5 19
e 5 24
e 5 25
e 5 29
e 5 30
e 5 31
e 5 34
e 5 37
e 5 39
e 5 40
e 5 43
e 6 8
e 6 9
e 6 10
e 6 11
e 6 12
e 6 14
e 6 21
e 6 26
e 6 27
e 6 28
e 6 31
e 6 33
e 6 34
e 6 43
e 6 47
e 6 49
e 7 14
e 7 15
e 7 22
e 7 24
e 7 26
e 7 27
e 7 28
e 7 31
e 7 32
e 7 41
e 7 43
e 7 46
e 8 14
e 8 17
e 8 18
e 8 24
e 8 34
e 8 36
e 8 39
e 8 50
e 9 12
e 9 15
e 9 19
e 9 20
e 9 22
e 9 25
e 9 33
e 9 38
e 9 41
e 9 44
e 10 11
e 10 20
e 10 22
e 10 25
e 10 27
e 10 29
e 10 32
e 10 37
e 10 38
e 10 40
e 11 13
e 11 15
e 11 16
e 11 17
e 11 23
e 11 26
e 11 29
e 11 33
e 11 41
e 11 42
e 11 44
e 11 45
e 12 13
e 12 16
e 12 17
e 12 18
e 12 22
e 12 27
e 12 34
e 12 35
e 12 39
e 12 41
e 12 42
e 12 48
e 12 50
e 13 18
e 13 19
e 13 23
e 13 24
e 13 25
e 13 30
e 13 31
e 13 34
e 13 37
e 13 39
e 13 40
e 13 44
e 13 45
e 13 47
e 13 49
e 14 16
e 14 26
e 14 29
e 14 32
e 14 36
e 14 46
e 14 50
e 15 16
e 15 17
e 15 22
e 15 30
e 15 35
e 15 36
e 15 37
e 15 39
e 15 49
e 15 50
e 16 19
e 16 20
e 16 24
e 16 25
e 16 30
e 16 35
e 16 36
e 16 41
e 16 46
e 16 49
e 16 50
e 17 18
e 17 20
e 17 23
e 17 24
e 17 30
e 17 31
e 17 33
e 17 37
e 17 42
e 17 43
e 17 44
e 17 46
e 18 22
e 18 27
e 18 30
e 18 39
e 18 41
e 18 43
e 18 46
e 18 49
e 18 50
e 19 22
e 19 30
e 19 33
e 19 35
e 19 40
e 19 41
e 19 46
e 20 22
e 20 25
e 20 26
e 20 27
e 20 29
e 20 34
e 20 38
e 20 39
e 20 50
e 21 24
e 21 26
e 21 28
e 21 31
e 21 35
e 21 39
e 21 41
e 21 44
e 21 48
e 22 27
e 22 29
e 22 32
e 22 33
e 22 38
e 22 39
e 22 42
e 22 43
e 22 46
e 23 25
e 23 26
e 23 29
e 23 30
e 23 32
e 23 35
e 23 37
e 23 40
e 23 41
e 23 44
e 23 47
e 24 25
e 24 29
e 24 31
e 24 32
e 24 33
e 24 34
e 24 38
e 24 39
e 24 40
e 24 50
e 25 26
e 25 27
e 25 30
e 25 31
e 25 35
e 25 38
e 25 39
e 25 42
e 25 49
e 25 50
e 26 28
e 26 31
e 26 37
e 26 40
e 26 41
e 26 42
e 26 46
e 27 31
e 27 35
e 27 37
e 27 39
e 27 41
e 27 48
e 27 49
e 27 50
e 28 32
e 28 33
e 28 40
e 28 41
e 28 42
e 29 30
e 29 32
e 29 44
e 29 48
e 30 31
e 30 32
e 30 37
e 30 40
e 30 45
e 31 34
e 31 41
e 31 42
e 31 43
e 31 45
e 31 46
e 31 48
e 32 34
e 32 36
e 32 42
e 32 45
e 32 47
e 32 48
e 32 49
e 32 50
e 33 34
e 33 37
e 33 41
e 33 44
e 34 41
e 34 44
e 34 45
e 34 48
e 35 38
e 35 46
e 35 47
e 35 48
e 36 40
e 36 41
e 36 45
e 36 48
e 37 42
e 37 43
e 37 46
e 37 49
e 38 42
e 38 43
e 38 44
e 38 45
e 38 48
e 38 49
e 39 42
e 39 50
e 40 44
e 41 43
e 41 47
e 41 48
e 42 45
e 42 47
e 43 44
e 43 45
e 43 46
e 43 48
e 44 49
e 44 50
e 45 46
e 45 50
e 46 49
e 46 50
e 49 50
